results_rootrelaxation/bin012_090_043.srr.sol
solution status: optimal solution found
objective value:                     27.3333333333333
_var716_                            0.333333333333333 	(obj:3)
_var728_                            0.111111111111111 	(obj:3)
_var754_                            0.333333333333333 	(obj:3)
_var767_                            0.555555555555555 	(obj:2)
_var780_                            0.333333333333333 	(obj:3)
_var788_                            0.333333333333333 	(obj:2)
_var795_                            0.111111111111111 	(obj:3)
_var796_                            0.333333333333333 	(obj:3)
_var801_                            0.555555555555556 	(obj:2)
_var808_                            0.222222222222222 	(obj:2)
_var826_                            0.222222222222222 	(obj:2)
_var827_                            0.222222222222222 	(obj:3)
_var833_                            0.444444444444445 	(obj:2)
_var847_                            0.444444444444444 	(obj:3)
_var851_                            0.444444444444444 	(obj:3)
_var857_                            0.333333333333333 	(obj:3)
_var858_                            0.444444444444445 	(obj:2)
_var863_                            0.666666666666667 	(obj:1)
_var875_                            0.222222222222222 	(obj:3)
_var876_                            0.666666666666667 	(obj:2)
_var879_                            0.222222222222222 	(obj:3)
_var886_                            0.333333333333333 	(obj:3)
_var892_                            0.222222222222222 	(obj:3)
_var895_                            0.111111111111111 	(obj:3)
_var896_                            0.111111111111111 	(obj:2)
_var899_                            0.111111111111111 	(obj:3)
_var903_                            0.666666666666667 	(obj:3)
_var904_                            0.111111111111111 	(obj:2)
_var906_                            0.111111111111111 	(obj:3)
_var913_                            0.666666666666667 	(obj:2)
_var914_                            0.111111111111111 	(obj:3)
_var918_                            0.333333333333333 	(obj:3)
_var919_                            0.111111111111111 	(obj:3)
_var920_                            0.111111111111111 	(obj:3)
_var921_                            0.111111111111111 	(obj:3)
_var933_                            0.111111111111111 	(obj:3)
_var938_                            0.111111111111111 	(obj:3)
